unknown
(model
; cardinality of BoundSet is 2
(declare-sort BoundSet 0)
; rep: @uc_BoundSet_0
; rep: @uc_BoundSet_1
; cardinality of UnboundSet is 1
(declare-sort UnboundSet 0)
(declare-fun groundTerm_3 () UnboundSet)
(define-fun IsCrucialTo ((BOUND_VARIABLE_403 BoundSet) (BOUND_VARIABLE_404 BoundSet)) Bool true)
(define-fun IsWithout ((BOUND_VARIABLE_403 BoundSet) (BOUND_VARIABLE_404 BoundSet)) Bool false)
(define-fun AreLargestTreesOnEarth ((BOUND_VARIABLE_419 BoundSet)) Bool false)
(define-fun IsOnEarth ((BOUND_VARIABLE_419 BoundSet)) Bool false)
)
sat
(model
; cardinality of BoundSet is 1
(declare-sort BoundSet 0)
; rep: @uc_BoundSet_0
; cardinality of UnboundSet is 1
(declare-sort UnboundSet 0)
(declare-fun groundTerm_5 () UnboundSet)
(define-fun IsCrucialTo ((BOUND_VARIABLE_432 BoundSet) (BOUND_VARIABLE_433 BoundSet)) Bool true)
(define-fun IsWithout ((BOUND_VARIABLE_432 BoundSet) (BOUND_VARIABLE_433 BoundSet)) Bool false)
(define-fun AreLargestTreesOnEarth ((BOUND_VARIABLE_444 BoundSet)) Bool false)
(define-fun IsOnEarth ((BOUND_VARIABLE_444 BoundSet)) Bool false)
)
